NAME 
OBJSENSE MAX
ROWS
 N  OBJ
 L  packing[0]
 L  packing[1]
 L  packing[2]
 L  packing[3]
 L  packing[4]
 L  packing[5]
 L  packing[6]
 L  packing[7]
 L  packing[8]
 L  packing[9]
 L  packing[10]
 L  packing[11]
 L  packing[12]
 L  packing[13]
 L  packing[14]
 L  packing[15]
 L  packing[16]
 L  packing[17]
 L  packing[18]
 L  packing[19]
 L  packing[20]
 L  packing[21]
 L  packing[22]
 L  packing[23]
 L  packing[24]
 L  packing[25]
 L  packing[26]
 L  packing[27]
 L  packing[28]
 L  packing[29]
 L  packing[30]
 L  packing[31]
 L  packing[32]
 L  packing[33]
 L  packing[34]
 L  packing[35]
 L  packing[36]
 L  packing[37]
 L  packing[38]
 L  packing[39]
 L  packing[40]
 L  packing[41]
 L  packing[42]
 L  packing[43]
 L  packing[44]
 L  packing[45]
 L  packing[46]
 L  packing[47]
 L  packing[48]
 L  packing[49]
COLUMNS
    MARKER    'MARKER'                 'INTORG'
    x[1]      OBJ       20
    x[1]      packing[0]  34
    x[1]      packing[1]  96
    x[1]      packing[2]  57
    x[1]      packing[3]  139
    x[1]      packing[6]  97
    x[1]      packing[7]  103
    x[1]      packing[8]  16
    x[1]      packing[9]  31
    x[1]      packing[10]  169
    x[1]      packing[11]  15
    x[1]      packing[12]  6
    x[1]      packing[13]  155
    x[1]      packing[14]  56
    x[1]      packing[15]  5
    x[1]      packing[19]  116
    x[1]      packing[20]  144
    x[1]      packing[21]  116
    x[1]      packing[22]  89
    x[1]      packing[23]  173
    x[1]      packing[24]  104
    x[1]      packing[25]  134
    x[1]      packing[26]  137
    x[1]      packing[29]  172
    x[1]      packing[30]  152
    x[1]      packing[31]  140
    x[1]      packing[32]  117
    x[1]      packing[33]  102
    x[1]      packing[35]  196
    x[1]      packing[36]  96
    x[1]      packing[37]  18
    x[1]      packing[38]  111
    x[1]      packing[40]  97
    x[1]      packing[41]  59
    x[1]      packing[43]  63
    x[1]      packing[45]  157
    x[1]      packing[46]  141
    x[1]      packing[48]  6
    x[2]      OBJ       29
    x[2]      packing[0]  21
    x[2]      packing[1]  118
    x[2]      packing[3]  163
    x[2]      packing[4]  162
    x[2]      packing[6]  19
    x[2]      packing[7]  60
    x[2]      packing[8]  22
    x[2]      packing[9]  196
    x[2]      packing[10]  43
    x[2]      packing[11]  57
    x[2]      packing[14]  147
    x[2]      packing[15]  47
    x[2]      packing[16]  6
    x[2]      packing[17]  163
    x[2]      packing[18]  139
    x[2]      packing[19]  151
    x[2]      packing[20]  71
    x[2]      packing[21]  129
    x[2]      packing[22]  184
    x[2]      packing[23]  120
    x[2]      packing[24]  166
    x[2]      packing[25]  8
    x[2]      packing[26]  129
    x[2]      packing[27]  104
    x[2]      packing[28]  109
    x[2]      packing[29]  54
    x[2]      packing[32]  1
    x[2]      packing[33]  162
    x[2]      packing[34]  174
    x[2]      packing[35]  76
    x[2]      packing[36]  179
    x[2]      packing[38]  95
    x[2]      packing[40]  183
    x[2]      packing[41]  69
    x[2]      packing[42]  107
    x[2]      packing[43]  27
    x[2]      packing[45]  9
    x[2]      packing[48]  133
    x[3]      OBJ       83
    x[3]      packing[0]  119
    x[3]      packing[1]  171
    x[3]      packing[3]  133
    x[3]      packing[4]  76
    x[3]      packing[6]  135
    x[3]      packing[7]  161
    x[3]      packing[8]  108
    x[3]      packing[9]  163
    x[3]      packing[10]  186
    x[3]      packing[11]  96
    x[3]      packing[12]  48
    x[3]      packing[13]  160
    x[3]      packing[15]  101
    x[3]      packing[16]  28
    x[3]      packing[17]  94
    x[3]      packing[18]  125
    x[3]      packing[19]  2
    x[3]      packing[20]  37
    x[3]      packing[21]  79
    x[3]      packing[22]  4
    x[3]      packing[23]  136
    x[3]      packing[24]  185
    x[3]      packing[26]  87
    x[3]      packing[27]  78
    x[3]      packing[28]  177
    x[3]      packing[29]  67
    x[3]      packing[30]  118
    x[3]      packing[31]  11
    x[3]      packing[32]  139
    x[3]      packing[35]  67
    x[3]      packing[36]  88
    x[3]      packing[38]  115
    x[3]      packing[39]  123
    x[3]      packing[42]  153
    x[3]      packing[44]  99
    x[3]      packing[45]  102
    x[3]      packing[46]  189
    x[3]      packing[48]  106
    x[3]      packing[49]  132
    x[4]      OBJ       2
    x[4]      packing[1]  4
    x[4]      packing[2]  134
    x[4]      packing[3]  68
    x[4]      packing[4]  81
    x[4]      packing[6]  11
    x[4]      packing[7]  91
    x[4]      packing[9]  142
    x[4]      packing[10]  56
    x[4]      packing[12]  155
    x[4]      packing[16]  154
    x[4]      packing[18]  85
    x[4]      packing[19]  199
    x[4]      packing[20]  182
    x[4]      packing[21]  151
    x[4]      packing[22]  126
    x[4]      packing[23]  53
    x[4]      packing[24]  133
    x[4]      packing[25]  196
    x[4]      packing[26]  6
    x[4]      packing[27]  68
    x[4]      packing[28]  121
    x[4]      packing[30]  187
    x[4]      packing[31]  159
    x[4]      packing[32]  56
    x[4]      packing[33]  179
    x[4]      packing[34]  56
    x[4]      packing[35]  173
    x[4]      packing[37]  139
    x[4]      packing[38]  181
    x[4]      packing[39]  142
    x[4]      packing[40]  59
    x[4]      packing[41]  3
    x[4]      packing[42]  67
    x[4]      packing[43]  144
    x[4]      packing[44]  60
    x[4]      packing[45]  54
    x[4]      packing[46]  121
    x[4]      packing[48]  107
    x[5]      OBJ       80
    x[5]      packing[0]  58
    x[5]      packing[2]  63
    x[5]      packing[5]  118
    x[5]      packing[6]  45
    x[5]      packing[8]  19
    x[5]      packing[9]  62
    x[5]      packing[10]  138
    x[5]      packing[11]  104
    x[5]      packing[12]  37
    x[5]      packing[13]  93
    x[5]      packing[14]  151
    x[5]      packing[15]  137
    x[5]      packing[16]  153
    x[5]      packing[17]  199
    x[5]      packing[19]  199
    x[5]      packing[20]  158
    x[5]      packing[21]  148
    x[5]      packing[24]  170
    x[5]      packing[25]  93
    x[5]      packing[26]  10
    x[5]      packing[27]  173
    x[5]      packing[28]  23
    x[5]      packing[29]  52
    x[5]      packing[30]  134
    x[5]      packing[31]  159
    x[5]      packing[32]  159
    x[5]      packing[36]  139
    x[5]      packing[40]  62
    x[5]      packing[41]  6
    x[5]      packing[42]  94
    x[5]      packing[43]  122
    x[5]      packing[44]  98
    x[5]      packing[48]  53
    x[6]      OBJ       42
    x[6]      packing[0]  154
    x[6]      packing[3]  175
    x[6]      packing[6]  125
    x[6]      packing[7]  159
    x[6]      packing[8]  150
    x[6]      packing[10]  170
    x[6]      packing[11]  122
    x[6]      packing[12]  103
    x[6]      packing[13]  162
    x[6]      packing[14]  146
    x[6]      packing[15]  72
    x[6]      packing[17]  17
    x[6]      packing[18]  147
    x[6]      packing[21]  64
    x[6]      packing[22]  191
    x[6]      packing[23]  58
    x[6]      packing[24]  36
    x[6]      packing[26]  165
    x[6]      packing[27]  81
    x[6]      packing[28]  59
    x[6]      packing[29]  15
    x[6]      packing[30]  7
    x[6]      packing[31]  138
    x[6]      packing[32]  65
    x[6]      packing[34]  78
    x[6]      packing[35]  21
    x[6]      packing[36]  142
    x[6]      packing[38]  108
    x[6]      packing[39]  164
    x[6]      packing[40]  73
    x[6]      packing[41]  105
    x[6]      packing[42]  146
    x[6]      packing[43]  168
    x[6]      packing[46]  7
    x[6]      packing[47]  22
    x[7]      OBJ       169
    x[7]      packing[0]  1
    x[7]      packing[2]  64
    x[7]      packing[4]  39
    x[7]      packing[5]  127
    x[7]      packing[7]  182
    x[7]      packing[8]  125
    x[7]      packing[9]  57
    x[7]      packing[10]  180
    x[7]      packing[11]  155
    x[7]      packing[12]  178
    x[7]      packing[13]  22
    x[7]      packing[14]  189
    x[7]      packing[16]  174
    x[7]      packing[18]  73
    x[7]      packing[19]  168
    x[7]      packing[22]  30
    x[7]      packing[23]  28
    x[7]      packing[24]  17
    x[7]      packing[25]  51
    x[7]      packing[26]  57
    x[7]      packing[27]  109
    x[7]      packing[28]  195
    x[7]      packing[29]  42
    x[7]      packing[30]  146
    x[7]      packing[31]  118
    x[7]      packing[32]  185
    x[7]      packing[35]  118
    x[7]      packing[36]  11
    x[7]      packing[38]  153
    x[7]      packing[40]  71
    x[7]      packing[41]  44
    x[7]      packing[44]  106
    x[7]      packing[45]  1
    x[7]      packing[46]  137
    x[7]      packing[48]  196
    x[7]      packing[49]  120
    x[8]      OBJ       94
    x[8]      packing[0]  63
    x[8]      packing[1]  103
    x[8]      packing[2]  133
    x[8]      packing[4]  135
    x[8]      packing[7]  106
    x[8]      packing[8]  18
    x[8]      packing[9]  128
    x[8]      packing[11]  174
    x[8]      packing[12]  179
    x[8]      packing[13]  9
    x[8]      packing[14]  173
    x[8]      packing[16]  45
    x[8]      packing[17]  87
    x[8]      packing[18]  11
    x[8]      packing[19]  46
    x[8]      packing[21]  41
    x[8]      packing[22]  42
    x[8]      packing[24]  65
    x[8]      packing[25]  17
    x[8]      packing[26]  9
    x[8]      packing[27]  82
    x[8]      packing[28]  77
    x[8]      packing[30]  106
    x[8]      packing[32]  65
    x[8]      packing[33]  80
    x[8]      packing[34]  133
    x[8]      packing[36]  149
    x[8]      packing[37]  140
    x[8]      packing[38]  79
    x[8]      packing[39]  28
    x[8]      packing[40]  117
    x[8]      packing[41]  195
    x[8]      packing[42]  81
    x[8]      packing[43]  17
    x[8]      packing[46]  77
    x[8]      packing[47]  124
    x[8]      packing[48]  31
    x[8]      packing[49]  50
    x[9]      OBJ       133
    x[9]      packing[0]  15
    x[9]      packing[2]  121
    x[9]      packing[3]  138
    x[9]      packing[4]  25
    x[9]      packing[6]  105
    x[9]      packing[7]  28
    x[9]      packing[8]  136
    x[9]      packing[9]  192
    x[9]      packing[10]  118
    x[9]      packing[11]  34
    x[9]      packing[12]  165
    x[9]      packing[13]  97
    x[9]      packing[14]  71
    x[9]      packing[16]  82
    x[9]      packing[18]  7
    x[9]      packing[19]  192
    x[9]      packing[20]  137
    x[9]      packing[21]  76
    x[9]      packing[22]  152
    x[9]      packing[23]  178
    x[9]      packing[24]  98
    x[9]      packing[25]  101
    x[9]      packing[26]  22
    x[9]      packing[29]  181
    x[9]      packing[31]  121
    x[9]      packing[33]  15
    x[9]      packing[34]  131
    x[9]      packing[35]  54
    x[9]      packing[36]  27
    x[9]      packing[38]  95
    x[9]      packing[39]  26
    x[9]      packing[40]  68
    x[9]      packing[42]  196
    x[9]      packing[43]  187
    x[9]      packing[44]  166
    x[9]      packing[47]  17
    x[9]      packing[48]  77
    x[9]      packing[49]  1
    x[10]     OBJ       28
    x[10]     packing[2]  171
    x[10]     packing[3]  176
    x[10]     packing[4]  1
    x[10]     packing[5]  72
    x[10]     packing[6]  167
    x[10]     packing[7]  39
    x[10]     packing[8]  185
    x[10]     packing[9]  61
    x[10]     packing[11]  161
    x[10]     packing[14]  50
    x[10]     packing[15]  34
    x[10]     packing[18]  126
    x[10]     packing[19]  79
    x[10]     packing[20]  50
    x[10]     packing[21]  108
    x[10]     packing[22]  112
    x[10]     packing[23]  2
    x[10]     packing[24]  38
    x[10]     packing[25]  29
    x[10]     packing[27]  193
    x[10]     packing[28]  93
    x[10]     packing[29]  132
    x[10]     packing[30]  78
    x[10]     packing[33]  158
    x[10]     packing[34]  76
    x[10]     packing[36]  196
    x[10]     packing[37]  177
    x[10]     packing[38]  5
    x[10]     packing[39]  98
    x[10]     packing[41]  103
    x[10]     packing[42]  146
    x[10]     packing[43]  125
    x[10]     packing[44]  120
    x[10]     packing[45]  191
    x[10]     packing[46]  13
    x[10]     packing[47]  40
    x[10]     packing[48]  174
    x[10]     packing[49]  70
    x[11]     OBJ       128
    x[11]     packing[0]  153
    x[11]     packing[1]  72
    x[11]     packing[2]  197
    x[11]     packing[3]  147
    x[11]     packing[4]  155
    x[11]     packing[5]  147
    x[11]     packing[6]  77
    x[11]     packing[7]  178
    x[11]     packing[8]  122
    x[11]     packing[9]  97
    x[11]     packing[10]  98
    x[11]     packing[11]  35
    x[11]     packing[12]  166
    x[11]     packing[14]  19
    x[11]     packing[15]  78
    x[11]     packing[16]  192
    x[11]     packing[17]  39
    x[11]     packing[19]  100
    x[11]     packing[20]  108
    x[11]     packing[21]  55
    x[11]     packing[24]  191
    x[11]     packing[25]  9
    x[11]     packing[26]  120
    x[11]     packing[27]  155
    x[11]     packing[28]  9
    x[11]     packing[29]  173
    x[11]     packing[30]  32
    x[11]     packing[31]  136
    x[11]     packing[32]  76
    x[11]     packing[33]  63
    x[11]     packing[34]  83
    x[11]     packing[35]  50
    x[11]     packing[37]  163
    x[11]     packing[38]  47
    x[11]     packing[41]  37
    x[11]     packing[42]  88
    x[11]     packing[43]  45
    x[11]     packing[44]  128
    x[11]     packing[45]  178
    x[11]     packing[46]  118
    x[11]     packing[48]  23
    x[11]     packing[49]  119
    x[12]     OBJ       196
    x[12]     packing[1]  198
    x[12]     packing[3]  123
    x[12]     packing[4]  45
    x[12]     packing[6]  178
    x[12]     packing[7]  53
    x[12]     packing[8]  126
    x[12]     packing[9]  163
    x[12]     packing[10]  178
    x[12]     packing[11]  101
    x[12]     packing[12]  81
    x[12]     packing[13]  187
    x[12]     packing[15]  135
    x[12]     packing[16]  79
    x[12]     packing[17]  160
    x[12]     packing[18]  149
    x[12]     packing[19]  142
    x[12]     packing[20]  182
    x[12]     packing[21]  189
    x[12]     packing[22]  140
    x[12]     packing[23]  110
    x[12]     packing[24]  104
    x[12]     packing[25]  75
    x[12]     packing[28]  125
    x[12]     packing[30]  102
    x[12]     packing[33]  117
    x[12]     packing[34]  58
    x[12]     packing[35]  112
    x[12]     packing[36]  13
    x[12]     packing[37]  98
    x[12]     packing[38]  153
    x[12]     packing[39]  84
    x[12]     packing[40]  29
    x[12]     packing[41]  98
    x[12]     packing[42]  7
    x[12]     packing[43]  39
    x[12]     packing[44]  22
    x[12]     packing[45]  193
    x[12]     packing[46]  89
    x[12]     packing[47]  107
    x[12]     packing[48]  118
    x[12]     packing[49]  53
    x[13]     OBJ       168
    x[13]     packing[0]  115
    x[13]     packing[2]  100
    x[13]     packing[3]  181
    x[13]     packing[5]  33
    x[13]     packing[6]  30
    x[13]     packing[7]  191
    x[13]     packing[8]  16
    x[13]     packing[9]  109
    x[13]     packing[10]  44
    x[13]     packing[11]  22
    x[13]     packing[12]  27
    x[13]     packing[14]  126
    x[13]     packing[15]  29
    x[13]     packing[16]  156
    x[13]     packing[18]  62
    x[13]     packing[19]  70
    x[13]     packing[20]  74
    x[13]     packing[21]  41
    x[13]     packing[22]  106
    x[13]     packing[23]  193
    x[13]     packing[25]  102
    x[13]     packing[26]  137
    x[13]     packing[27]  171
    x[13]     packing[28]  108
    x[13]     packing[29]  32
    x[13]     packing[30]  99
    x[13]     packing[32]  47
    x[13]     packing[33]  169
    x[13]     packing[34]  54
    x[13]     packing[35]  41
    x[13]     packing[36]  198
    x[13]     packing[37]  21
    x[13]     packing[38]  52
    x[13]     packing[39]  28
    x[13]     packing[40]  184
    x[13]     packing[42]  183
    x[13]     packing[43]  129
    x[13]     packing[44]  156
    x[13]     packing[45]  117
    x[13]     packing[46]  107
    x[13]     packing[48]  72
    x[13]     packing[49]  25
    x[14]     OBJ       111
    x[14]     packing[1]  12
    x[14]     packing[2]  96
    x[14]     packing[3]  118
    x[14]     packing[4]  37
    x[14]     packing[5]  88
    x[14]     packing[6]  132
    x[14]     packing[8]  172
    x[14]     packing[9]  101
    x[14]     packing[10]  156
    x[14]     packing[12]  172
    x[14]     packing[13]  120
    x[14]     packing[15]  174
    x[14]     packing[17]  158
    x[14]     packing[18]  86
    x[14]     packing[19]  100
    x[14]     packing[20]  61
    x[14]     packing[21]  55
    x[14]     packing[22]  182
    x[14]     packing[23]  145
    x[14]     packing[26]  26
    x[14]     packing[30]  37
    x[14]     packing[31]  163
    x[14]     packing[32]  77
    x[14]     packing[33]  175
    x[14]     packing[34]  5
    x[14]     packing[36]  1
    x[14]     packing[37]  81
    x[14]     packing[38]  180
    x[14]     packing[41]  14
    x[14]     packing[42]  5
    x[14]     packing[43]  126
    x[14]     packing[44]  36
    x[14]     packing[46]  134
    x[14]     packing[47]  23
    x[14]     packing[48]  91
    x[14]     packing[49]  46
    x[15]     OBJ       44
    x[15]     packing[0]  111
    x[15]     packing[1]  150
    x[15]     packing[3]  183
    x[15]     packing[4]  118
    x[15]     packing[5]  3
    x[15]     packing[6]  187
    x[15]     packing[7]  170
    x[15]     packing[8]  98
    x[15]     packing[9]  24
    x[15]     packing[10]  125
    x[15]     packing[11]  16
    x[15]     packing[13]  102
    x[15]     packing[14]  199
    x[15]     packing[16]  169
    x[15]     packing[17]  180
    x[15]     packing[20]  190
    x[15]     packing[21]  77
    x[15]     packing[22]  49
    x[15]     packing[24]  28
    x[15]     packing[25]  32
    x[15]     packing[26]  142
    x[15]     packing[27]  130
    x[15]     packing[28]  130
    x[15]     packing[29]  14
    x[15]     packing[30]  95
    x[15]     packing[32]  9
    x[15]     packing[33]  108
    x[15]     packing[34]  18
    x[15]     packing[35]  10
    x[15]     packing[37]  97
    x[15]     packing[38]  96
    x[15]     packing[39]  125
    x[15]     packing[40]  70
    x[15]     packing[41]  185
    x[15]     packing[42]  95
    x[15]     packing[44]  192
    x[15]     packing[45]  66
    x[15]     packing[46]  2
    x[15]     packing[48]  108
    x[15]     packing[49]  84
    x[16]     OBJ       151
    x[16]     packing[1]  84
    x[16]     packing[2]  172
    x[16]     packing[4]  88
    x[16]     packing[5]  58
    x[16]     packing[6]  35
    x[16]     packing[7]  89
    x[16]     packing[8]  61
    x[16]     packing[9]  180
    x[16]     packing[10]  16
    x[16]     packing[11]  96
    x[16]     packing[13]  93
    x[16]     packing[14]  89
    x[16]     packing[15]  128
    x[16]     packing[17]  181
    x[16]     packing[19]  107
    x[16]     packing[20]  69
    x[16]     packing[21]  11
    x[16]     packing[23]  14
    x[16]     packing[24]  23
    x[16]     packing[25]  70
    x[16]     packing[26]  147
    x[16]     packing[27]  133
    x[16]     packing[28]  145
    x[16]     packing[29]  168
    x[16]     packing[30]  38
    x[16]     packing[31]  129
    x[16]     packing[33]  91
    x[16]     packing[34]  134
    x[16]     packing[36]  32
    x[16]     packing[37]  107
    x[16]     packing[38]  89
    x[16]     packing[40]  56
    x[16]     packing[42]  145
    x[16]     packing[43]  94
    x[16]     packing[44]  160
    x[16]     packing[46]  96
    x[16]     packing[47]  90
    x[16]     packing[48]  15
    x[16]     packing[49]  153
    x[17]     OBJ       103
    x[17]     packing[2]  75
    x[17]     packing[3]  12
    x[17]     packing[4]  151
    x[17]     packing[5]  93
    x[17]     packing[7]  128
    x[17]     packing[8]  33
    x[17]     packing[9]  11
    x[17]     packing[10]  63
    x[17]     packing[11]  116
    x[17]     packing[12]  196
    x[17]     packing[13]  109
    x[17]     packing[14]  59
    x[17]     packing[15]  30
    x[17]     packing[16]  110
    x[17]     packing[19]  164
    x[17]     packing[21]  25
    x[17]     packing[23]  130
    x[17]     packing[24]  82
    x[17]     packing[25]  185
    x[17]     packing[28]  111
    x[17]     packing[31]  123
    x[17]     packing[32]  87
    x[17]     packing[33]  136
    x[17]     packing[34]  13
    x[17]     packing[36]  79
    x[17]     packing[37]  181
    x[17]     packing[38]  85
    x[17]     packing[39]  39
    x[17]     packing[40]  138
    x[17]     packing[41]  70
    x[17]     packing[42]  16
    x[17]     packing[43]  56
    x[17]     packing[44]  63
    x[17]     packing[45]  22
    x[17]     packing[47]  127
    x[17]     packing[48]  64
    x[17]     packing[49]  108
    x[18]     OBJ       82
    x[18]     packing[0]  33
    x[18]     packing[1]  132
    x[18]     packing[3]  20
    x[18]     packing[5]  116
    x[18]     packing[6]  109
    x[18]     packing[7]  139
    x[18]     packing[8]  103
    x[18]     packing[9]  163
    x[18]     packing[11]  42
    x[18]     packing[12]  114
    x[18]     packing[13]  171
    x[18]     packing[14]  185
    x[18]     packing[16]  45
    x[18]     packing[17]  71
    x[18]     packing[18]  107
    x[18]     packing[19]  142
    x[18]     packing[23]  5
    x[18]     packing[25]  22
    x[18]     packing[26]  127
    x[18]     packing[30]  23
    x[18]     packing[31]  32
    x[18]     packing[32]  160
    x[18]     packing[33]  41
    x[18]     packing[34]  18
    x[18]     packing[37]  184
    x[18]     packing[39]  189
    x[18]     packing[41]  196
    x[18]     packing[42]  177
    x[18]     packing[44]  185
    x[18]     packing[45]  160
    x[18]     packing[46]  21
    x[18]     packing[47]  116
    x[18]     packing[48]  192
    x[18]     packing[49]  170
    x[19]     OBJ       27
    x[19]     packing[0]  159
    x[19]     packing[1]  10
    x[19]     packing[2]  110
    x[19]     packing[3]  26
    x[19]     packing[6]  21
    x[19]     packing[7]  112
    x[19]     packing[9]  100
    x[19]     packing[10]  38
    x[19]     packing[11]  140
    x[19]     packing[12]  75
    x[19]     packing[13]  47
    x[19]     packing[14]  52
    x[19]     packing[16]  169
    x[19]     packing[17]  115
    x[19]     packing[18]  125
    x[19]     packing[22]  141
    x[19]     packing[23]  90
    x[19]     packing[24]  137
    x[19]     packing[25]  181
    x[19]     packing[26]  137
    x[19]     packing[27]  53
    x[19]     packing[28]  2
    x[19]     packing[29]  70
    x[19]     packing[30]  85
    x[19]     packing[31]  146
    x[19]     packing[32]  101
    x[19]     packing[33]  45
    x[19]     packing[34]  111
    x[19]     packing[35]  34
    x[19]     packing[36]  102
    x[19]     packing[37]  182
    x[19]     packing[40]  101
    x[19]     packing[41]  182
    x[19]     packing[42]  49
    x[19]     packing[43]  47
    x[19]     packing[45]  56
    x[19]     packing[46]  53
    x[19]     packing[47]  46
    x[19]     packing[48]  64
    x[20]     OBJ       94
    x[20]     packing[1]  25
    x[20]     packing[3]  21
    x[20]     packing[4]  137
    x[20]     packing[5]  179
    x[20]     packing[6]  190
    x[20]     packing[7]  74
    x[20]     packing[8]  157
    x[20]     packing[9]  84
    x[20]     packing[11]  112
    x[20]     packing[12]  64
    x[20]     packing[13]  68
    x[20]     packing[14]  182
    x[20]     packing[16]  197
    x[20]     packing[17]  119
    x[20]     packing[18]  64
    x[20]     packing[19]  89
    x[20]     packing[21]  19
    x[20]     packing[22]  118
    x[20]     packing[24]  32
    x[20]     packing[26]  126
    x[20]     packing[27]  174
    x[20]     packing[28]  195
    x[20]     packing[30]  63
    x[20]     packing[31]  17
    x[20]     packing[32]  146
    x[20]     packing[33]  69
    x[20]     packing[34]  45
    x[20]     packing[35]  30
    x[20]     packing[36]  127
    x[20]     packing[37]  68
    x[20]     packing[40]  197
    x[20]     packing[41]  132
    x[20]     packing[42]  57
    x[20]     packing[43]  64
    x[20]     packing[44]  115
    x[20]     packing[45]  174
    x[20]     packing[46]  150
    x[20]     packing[48]  76
    MARKER    'MARKER'                 'INTEND'
RHS
    RHS1      packing[0]  518
    RHS1      packing[1]  588
    RHS1      packing[2]  747
    RHS1      packing[3]  912
    RHS1      packing[4]  625
    RHS1      packing[5]  517
    RHS1      packing[6]  832
    RHS1      packing[7]  1032
    RHS1      packing[8]  834
    RHS1      packing[9]  1032
    RHS1      packing[10]  889
    RHS1      packing[11]  799
    RHS1      packing[12]  883
    RHS1      packing[13]  798
    RHS1      packing[14]  947
    RHS1      packing[15]  485
    RHS1      packing[16]  880
    RHS1      packing[17]  792
    RHS1      packing[18]  653
    RHS1      packing[19]  1033
    RHS1      packing[20]  732
    RHS1      packing[21]  692
    RHS1      packing[22]  833
    RHS1      packing[23]  718
    RHS1      packing[24]  805
    RHS1      packing[25]  653
    RHS1      packing[26]  792
    RHS1      packing[27]  852
    RHS1      packing[28]  840
    RHS1      packing[29]  586
    RHS1      packing[30]  751
    RHS1      packing[31]  796
    RHS1      packing[32]  745
    RHS1      packing[33]  855
    RHS1      packing[34]  594
    RHS1      packing[35]  491
    RHS1      packing[36]  790
    RHS1      packing[37]  828
    RHS1      packing[38]  822
    RHS1      packing[39]  523
    RHS1      packing[40]  753
    RHS1      packing[41]  749
    RHS1      packing[42]  906
    RHS1      packing[43]  727
    RHS1      packing[44]  853
    RHS1      packing[45]  740
    RHS1      packing[46]  728
    RHS1      packing[47]  356
    RHS1      packing[48]  853
    RHS1      packing[49]  566
BOUNDS
 BV BND1      x[1]    
 BV BND1      x[2]    
 BV BND1      x[3]    
 BV BND1      x[4]    
 BV BND1      x[5]    
 BV BND1      x[6]    
 BV BND1      x[7]    
 BV BND1      x[8]    
 BV BND1      x[9]    
 BV BND1      x[10]   
 BV BND1      x[11]   
 BV BND1      x[12]   
 BV BND1      x[13]   
 BV BND1      x[14]   
 BV BND1      x[15]   
 BV BND1      x[16]   
 BV BND1      x[17]   
 BV BND1      x[18]   
 BV BND1      x[19]   
 BV BND1      x[20]   
ENDATA
